p cnf 32 32
-1 17 26 0 
-2 6 7 9 11 26 0 
-3 26 0 
-4 14 27 0 
-2 6 7 9 11 -5 26 0 
-6 2 7 9 11 26 0 
-7 2 6 9 11 28 0 
-8 29 0 
-9 2 6 7 11 28 0 
-3 28 0 
-1 17 28 0 
-10 28 0 
-11 2 6 7 9 28 0 
-12 30 0 
-13 31 0 
-14 4 30 0 
-15 30 0 
-16 29 0 
-17 1 -18 30 0 
-5 29 0 
-19 29 0 
-20 29 0 
-19 -21 30 0 
-13 29 0 
-22 29 0 
-8 -4 14 29 0 
-23 29 0 
-24 32 0 
-24 -7 2 6 9 11 30 0 
-17 1 -19 30 0 
-25 29 0 
-15 -4 14 30 0 
